NAME : Tesis-2
DIMENSION : 6
FLEET : 4
PLANIFICATION_HORIZON: 35
NODE_INFORMATION
NODE	SERV	MINV	MAXV
0	0	0	4
1	3	1	1
2	2	2	4
3	1	1	1
4	2	1	1
5	0	0	4
MATRIX
0	1	2	3	2	1000
1	0	2	3	2	2
3	2	0	1	3	3
2	3	2	0	1	3
3	2	3	2	0	3
1000	1000	1000	1000	1000	0

